# Cálculo TD-DFT dos estados excitados do cluster de Triptofanos
! ωB97X-D3 def2-SVP TightSCF CPCM(ε=4) NormalPrint
%tddft
  NRoots 50
  MaxDim 150
  DoNTO true
  NTOThresh 0.05
end
%pal nprocs 32 end
%maxcore 8000

* xyzfile 0 1 tryptophan_cluster_opt.xyz
